
;this file is automatically generated: Sun Oct 25 10:43:48 CST 2020

;declarations generated

(declare-fun obj_aade5b34_7cd6_4773_87e3_ce5719a9c1ec ( Int) Int)
(declare-fun oclExcludes ( Int Int) Bool)
(declare-fun type_f5d170dc_baf6_4829_b9a7_3157457466b0_Class3 ( Int) Bool)
(declare-fun class3_Class3IntAttr2 ( Int) Int)
(declare-fun class3_Class3IntAttr3 ( Int) Int)
(declare-fun Cardinality ( Int) Int)
(declare-fun oclSelect ( Int Bool) Int)
(declare-fun Enum0 ( Int) Int)
(declare-fun Enum1 ( Int) Int)
(declare-fun container_ ( Int) Int)
(declare-fun oclIncludes ( Int Int) Bool)
(declare-fun ObjAt ( Int Int) Int)

;formula(s) generated
(assert (! (exists ((c1 Int)) (and ( type_f5d170dc_baf6_4829_b9a7_3157457466b0_Class3 c1 )  (>= ( class3_Class3IntAttr3 ( obj_aade5b34_7cd6_4773_87e3_ce5719a9c1ec c1 )  )  5))):named l0))
(assert (! (forall ((c3_2 Int)(c3_1 Int)) (=> (and ( type_f5d170dc_baf6_4829_b9a7_3157457466b0_Class3 c3_1 )  ( type_f5d170dc_baf6_4829_b9a7_3157457466b0_Class3 c3_2 ) ) (<= ( class3_Class3IntAttr2 ( obj_aade5b34_7cd6_4773_87e3_ce5719a9c1ec c3_1 )  )  ( class3_Class3IntAttr3 ( obj_aade5b34_7cd6_4773_87e3_ce5719a9c1ec c3_2 )  ) ))):named l1))
(assert (exists ((o Int)) ( type_f5d170dc_baf6_4829_b9a7_3157457466b0_Class3 ( obj_aade5b34_7cd6_4773_87e3_ce5719a9c1ec o )  ) ))

 ;end of formula 